1
1000
60
498 1
497 1
492 1
482 1
481 1
480 1
478 1
455 1
450 1
444 1
439 1
436 1
432 1
432 1
429 1
412 1
408 1
402 1
402 1
382 1
354 1
334 1
329 1
315 1
314 1
314 1
308 1
300 1
296 1
284 1
282 1
282 1
280 1
279 1
279 1
275 1
274 1
274 1
270 1
269 1
268 1
267 1
266 1
264 1
264 1
264 1
263 1
263 1
258 1
256 1
255 1
255 1
253 1
253 1
253 1
252 1
252 1
251 1
250 1
250 1
